CMD:
./solvers/bin/cadical --plain --no-reduce -t 1600 ./data/cnfs//vis_arrays_am2901/vis_arrays_am2901.14.cnf

c --- [ banner ] -------------------------------------------------------------
c 
c CaDiCaL SAT Solver
c Copyright (c) 2016-2024
c A. Biere, M. Fleury, N. Froleyks, K. Fazekas, F. Pollitt, T. Faller
c JKU Linz, University of Freiburg, TU Wien
c 
c Version 2.1.3 5296d3d2a9bf48c154ab2acb5e44625776d821bf
c g++ (Gentoo 12.3.1_p20230526 p2) 12.3.1 20230526 -Wall -Wextra -O3 -DNDEBUG
c Sat Aug 9 07:26:21 PDT 2025 Linux cedar2.int.cedar.computecanada.ca 5.14.0-362.24.2.el9_3.x86_64 x86_64
c 
c --- [ limit ] --------------------------------------------------------------
c 
c setting time limit to 1600 seconds real time (due to '-t 1600')
c 
c --- [ parsing input ] ------------------------------------------------------
c 
c reading DIMACS file from './data/cnfs//vis_arrays_am2901/vis_arrays_am2901.14.cnf'
c opening file to read './data/cnfs//vis_arrays_am2901/vis_arrays_am2901.14.cnf'
c found 'p cnf 15655 44168' header
c parsed 44168 clauses in 0.01 seconds process time
c 
c --- [ options ] ------------------------------------------------------------
c 
c   --compact=false                (different from default 'true')
c   --decompose=false              (different from default 'true')
c   --deduplicate=false            (different from default 'true')
c   --elim=false                   (different from default 'true')
c   --probe=false                  (different from default 'true')
c   --reduce=false                 (different from default 'true')
c   --subsume=false                (different from default 'true')
c   --ternary=false                (different from default 'true')
c   --transred=false               (different from default 'true')
c   --vivify=false                 (different from default 'true')
c 
c --- [ solving ] ------------------------------------------------------------
c 
c time measured in process time since initialization
c 
c  seconds  reductions  redundant  irredundant
c         MB    restarts       trail      variables
c          level   conflicts       glue        remaining
c 
c *  0.01 11  0 0   0    0    0  0% 0 43531 15029 96%
c {  0.01 11  0 0   0    0    0  0% 0 43531 15029 96%
c i  0.01 11 105 0   0   11   10 11% 2 43531 15028 96%
c }  0.05 11 85 0 104 1000  908 32% 5 43531 15028 96%
c [  0.05 11  0 0 104 1000  908  0% 0 43531 15028 96%
c O  0.05 11 76 0 104 1002  910 20% 1 43531 15028 96%
c ]  0.09 12 259 0 105 3000 2596 40% 7 43531 15028 96%
c {  0.09 12 85 0 105 3000 2596 32% 5 43531 15028 96%
c F  0.09 12 85 0 105 3003 2599 32% 5 43531 15028 96%
c #  0.21 12 47 0 405 6004 5335 30% 6 43531 15028 96%
c }  0.26 13 44 0 510 7000 6251 30% 6 43531 15028 96%
c [  0.26 13 259 0 510 7000 6251 40% 7 43531 15028 96%
c I  0.36 13 121 0 512 10006 8812 30% 9 43531 15028 96%
c ]  0.53 14 70 0 515 15001 12199 26% 12 43531 15028 96%
c {  0.53 14 44 0 515 15001 12199 30% 6 43531 15028 96%
c B  0.53 14 44 0 515 15007 12204 30% 6 43531 15028 96%
c W  1.01 16 37 0 1719 21008 17806 29% 8 42387 15028 96%
c F  1.57 17 33 0 2970 28012 24231 28% 9 42387 15028 96%
c }  1.82 18 32 0 3441 31003 26904 27% 9 42387 15028 96%
c [  1.82 18 70 0 3441 31003 26904 26% 12 42387 15028 96%
c 
c  seconds  reductions     redundant   irredundant
c         MB    restarts          trail       variables
c          level     conflicts        glue         remaining
c 
c B  2.02 19 51 0 3444 36013 30442 24% 12 42387 15028 96%
c W  2.33 20 37 0 3448 45015 37130 22% 13 42387 15028 96%
c O  2.70 21 29 0 3450 55017 42442 21% 12 42387 15028 96%
c ]  2.89 22 25 0 3456 63003 44787 20% 11 42387 15028 96%
c {  2.89 22 32 0 3456 63003 44787 27% 9 42387 15028 96%
c B  3.11 24 29 0 3838 66019 46617 26% 9 42387 15028 96%
c W  4.19 26 25 0 5563 78021 54169 24% 10 42387 15028 96%
c #  4.69 27 20 0 5829 91022 59893 22% 9 42387 15028 96%
c B  5.22 29 17 0 6116 105023 65560 20% 9 42387 15028 96%
c W  5.88 31 16 0 6754 120024 71822 19% 9 42387 15028 96%
c }  6.15 32 15 0 6908 127007 74590 19% 9 42387 15028 96%
c [  6.15 32 25 0 6908 127007 74590 20% 11 42387 15028 96%
c B  6.45 32 21 0 6913 136025 78584 19% 11 42387 15028 96%
c W  7.12 34 18 0 6917 153028 86433 18% 10 42387 15028 96%
c I  7.94 37 15 0 6920 171030 93937 18% 10 42387 15028 96%
c B  8.87 40 14 0 6931 190032 103694 17% 10 42387 15028 96%
c i  8.91 40 14 0 6931 190620 103977 17% 10 42387 14834 95%
c i  9.80 42 13 0 6937 206572 110938 17% 9 42387 14751 94%
c i  9.99 42 13 0 6939 209431 112243 17% 9 42387 14726 94%
c i 10.02 43 13 0 6939 209959 112362 17% 9 42387 14643 94%
c 
c  seconds  reductions      redundant  irredundant
c         MB    restarts           trail      variables
c          level     conflicts         glue        remaining
c 
c W 10.08 47 13 0 6939 210033 69688 17% 9 40883 14643 94%
c i 10.11 47 13 0 6939 210765 69957 17% 9 40883 14618 93%
c i 10.16 47 13 0 6939 211699 70392 17% 9 40883 14510 93%
c i 10.18 47 12 0 6939 212168 70540 17% 9 40883 14301 91%
c i 10.18 47 12 0 6939 212249 70565 17% 9 40883 14218 91%
c i 10.19 47 12 0 6939 212324 70577 17% 9 40883 14063 90%
c i 10.19 47 12 0 6939 212374 70590 17% 9 40883 13626 87%
c i 10.19 47 12 0 6939 212375 70590 17% 9 40883 13525 86%
c i 10.19 47 12 0 6939 212376 70590 17% 9 40883 13294 85%
c ] 10.19 47 12 0 6939 212378 70590 17% 9 40883 13047 83%
c 0 10.19 47 12 0 6939 212378 70590 17% 9 40883 13047 83%
c 
c --- [ result ] -------------------------------------------------------------
c 
s UNSATISFIABLE
c 
c --- [ run-time profiling ] -------------------------------------------------
c 
c process time taken by individual solving procedures
c (percentage relative to process time for solving)
c 
c        10.18  100.00% search
c         5.34   52.49% stable
c         4.71   46.24% unstable
c         0.13    1.26% walk
c         0.01    0.07% parse
c         0.00    0.00% lucky
c         0.00    0.00% simplify
c   =================================
c        10.18   99.92% solve
c 
c last line shows process time for solving
c (percentage relative to total process time)
c 
c --- [ statistics ] ---------------------------------------------------------
c 
c chronological:             23227        10.94 %  of conflicts
c conflicts:                212378     20860.49    per second
c decisions:                363721     35725.91    per second
c fixed:                      2606        16.65 %  of all variables
c learned:                  209189        98.50 %  per conflict
c learned_lits:            5154932       100.00 %  learned literals
c minimized:                     0         0.00 %  learned literals
c shrunken:                2123179        41.19 %  learned literals
c minishrunken:             222913         4.32 %  learned literals
c otfs:                       1583         0.75 %  of conflict
c propagations:          100411615         9.86 M  per second
c rephased:                     20     10618.90    interval
c restarts:                   6939        30.61    interval
c stabilizing:                   4        59.96 %  of conflicts
c subsumed:                  95892        37.95 %  of all clauses
c strengthened:               1549         0.61 %  of all clauses
c walked:                        6     35396.33    interval
c 
c seconds are measured in process time for solving
c 
c --- [ resources ] ----------------------------------------------------------
c 
c total process time since initialization:        10.19    seconds
c total real time since initialization:           10.24    seconds
c maximum resident set size of process:           47.12    MB
c 
c --- [ shutting down ] ------------------------------------------------------
c 
c exit 20
